words_easy_train/words_63_SAT.qaiger
aag 29 16 0 1 13
16
18
6
22
28
30
32
12
20
2
26
24
4
10
8
14
59
34 25 8
36 35 32
38 30 26
40 22 20
42 40 28
44 42 38
46 18 3
48 19 2
50 49 47
52 24 9
54 53 50
56 54 44
58 56 36
i0 1 x2[7]
i1 2 y2[0]
i2 1 x2[2]
i3 2 y2[2]
i4 2 y2[5]
i5 2 y2[6]
i6 2 y2[7]
i7 1 x2[5]
i8 2 y2[1]
i9 1 x2[0]
i10 2 y2[4]
i11 2 y2[3]
i12 1 x2[1]
i13 1 x2[4]
i14 1 x2[3]
i15 1 x2[6]
o0 bool[0]
c
simplified
  !=
    or
      1 x2
      >> 2
        -38
    2 y2
