words_easy_train/words_63_SAT.qaiger.qdimacs
p cnf 29 40
a 1 2 3 4 5 6 7 8 0
e 9 10 11 12 13 14 15 16 17 18 19 20 21 22 23 24 25 26 27 28 29 0
12 -4 17 0
-12 -17 0
4 -17 0
17 -16 18 0
-17 -18 0
16 -18 0
-15 -13 19 0
15 -19 0
13 -19 0
-11 -10 20 0
11 -20 0
10 -20 0
-20 -14 21 0
20 -21 0
14 -21 0
-21 -19 22 0
21 -22 0
19 -22 0
-9 1 23 0
9 -23 0
-1 -23 0
9 -1 24 0
-9 -24 0
1 -24 0
24 23 25 0
-24 -25 0
-23 -25 0
-12 4 26 0
12 -26 0
-4 -26 0
26 -25 27 0
-26 -27 0
25 -27 0
-27 -22 28 0
27 -28 0
22 -28 0
-28 -18 29 0
28 -29 0
18 -29 0
-29 0
